(set-info :source |printed by MathSAT|)
(declare-fun ldv_mutex_disc_mutex_of_usb_serial () (_ BitVec 32))

*:
(assert (let ((.def_17395 (= ldv_mutex_disc_mutex_of_usb_serial (_ bv1 32)))).def_17395))
(assert (let ((.def_17400 (= ldv_mutex_disc_mutex_of_usb_serial (_ bv2 32)))).def_17400))

